\ This file has been generated by DOcplex
\ ENCODING=ISO-8859-1
\Problem name: dectiger problem

Maximize
 obj: - 2 aj_0 - 46 aj_1 - 46 aj_2 - 46 aj_3 - 15 aj_4 - 100 aj_5 - 46 aj_6
      - 100 aj_7 - 15 aj_8
Subject To
 c1: - 53.500000000000 aj_0 - 52.500000000000 aj_1 - 68 aj_2
     - 78.500000000000 aj_3 - 47.500000000000 aj_4 - 11 aj_5
     - 9.500000000000 aj_6 - 58 aj_7 - 72 aj_8 + 53.500000000000 a0_0
     + 78.500000000000 a0_1 + 9.500000000000 a0_2 >= 0
 c2: - 53.500000000000 aj_0 - 52.500000000000 aj_1 - 68 aj_2
     - 78.500000000000 aj_3 - 47.500000000000 aj_4 - 11 aj_5
     - 9.500000000000 aj_6 - 58 aj_7 - 72 aj_8 + 52.500000000000 a0_0
     + 47.500000000000 a0_1 + 58 a0_2 >= 0
 c3: - 53.500000000000 aj_0 - 52.500000000000 aj_1 - 68 aj_2
     - 78.500000000000 aj_3 - 47.500000000000 aj_4 - 11 aj_5
     - 9.500000000000 aj_6 - 58 aj_7 - 72 aj_8 + 68 a0_0 + 11 a0_1 + 72 a0_2
      >= 0
 c4: aj_0 + aj_1 + aj_2 - a0_0 = 0
 c5: aj_3 + aj_4 + aj_5 - a0_1 = 0
 c6: aj_6 + aj_7 + aj_8 - a0_2 = 0
 c7: aj_0 + aj_1 + aj_2 + aj_3 + aj_4 + aj_5 + aj_6 + aj_7 + aj_8 = 1
 c8: aj_0 + aj_3 + aj_6 - a1_0 = 0
 c9: aj_1 + aj_4 + aj_7 - a1_1 = 0
 c10: aj_2 + aj_5 + aj_8 - a1_2 = 0

Bounds
       a0_0 <= 1
       a0_1 <= 1
       a0_2 <= 1
 0 <= a1_0 <= 1
 0 <= a1_1 <= 1
 0 <= a1_2 <= 1
       aj_0 <= 1
       aj_1 <= 1
       aj_2 <= 1
       aj_3 <= 1
       aj_4 <= 1
       aj_5 <= 1
       aj_6 <= 1
       aj_7 <= 1
       aj_8 <= 1

Binaries
 a1_0 a1_1 a1_2
End
